(set-logic HORN)
(set-info :source |
    Benchmark: C_VC
    Output by Princess (http://www.philipp.ruemmer.org/princess.shtml)
|)
(set-info :status unknown)
(declare-fun inv_main13 (Int Int Int) Bool)
(declare-fun inv_main27 (Int Int Int) Bool)
(assert (forall ((var0 Int) (var1 Int) (var2 Int) (var3 Int) (var4 Int) (var5 Int)) (or (not (and (and (and (and (and (and (<= 0 var1) (<= 0 (+ (+ 10 (* (- 1) var1)) (- 1)))) (= 0 var3)) (= 0 var4)) (= 4000 var2)) (= 2000 var0)) (= 10000 var5))) (inv_main13 var1 var3 var4))))
(assert (forall ((var0 Int) (var1 Int) (var2 Int) (var3 Int) (var4 Int) (var5 Int) (var6 Int) (var7 Int) (var8 Int)) (or (not (and (inv_main13 var8 var0 var7) (and (and (and (and (and (and (and (<= 0 (+ (+ 2 (* (- 1) var8)) (- 1))) (<= 0 (+ (+ var8 (* (- 1) var0)) (- 1)))) (= var4 4000)) (= var3 0)) (= (+ var0 1) var6)) (= (+ var7 var4) var2)) (= var1 2000)) (= var5 10000)))) (inv_main13 var8 var6 var2))))
(assert (forall ((var0 Int) (var1 Int) (var2 Int) (var3 Int) (var4 Int) (var5 Int) (var6 Int) (var7 Int) (var8 Int)) (or (not (and (inv_main13 var8 var0 var7) (and (and (and (and (and (and (and (<= 0 (+ (+ 2 (* (- 1) var8)) (- 1))) (<= 0 (+ (+ var8 (* (- 1) var0)) (- 1)))) (= var1 2000)) (= var4 1)) (= (+ var0 1) var3)) (= (+ var7 var1) var2)) (= var5 4000)) (= var6 10000)))) (inv_main13 var8 var3 var2))))
(assert (forall ((var0 Int) (var1 Int) (var2 Int) (var3 Int) (var4 Int) (var5 Int) (var6 Int) (var7 Int) (var8 Int)) (or (not (and (inv_main13 var7 var0 var6) (and (and (and (and (and (and (and (and (and (not (= var2 1)) (not (= var2 0))) (<= 0 var2)) (<= 0 (+ (+ 2 (* (- 1) var7)) (- 1)))) (<= 0 (+ (+ var7 (* (- 1) var0)) (- 1)))) (= var5 10000)) (= (+ var0 1) var8)) (= (+ var6 var5) var3)) (= var4 4000)) (= var1 2000)))) (inv_main13 var7 var8 var3))))
(assert (forall ((var0 Int) (var1 Int) (var2 Int) (var3 Int) (var4 Int) (var5 Int) (var6 Int)) (or (not (and (inv_main13 var6 var0 var5) (and (and (and (and (and (<= 0 (+ var6 (- 1))) (not (<= 0 (+ (+ var6 (* (- 1) var0)) (- 1))))) (= 0 var4)) (= var2 4000)) (= var1 2000)) (= var3 10000)))) (inv_main27 var6 var5 var4))))
(assert (forall ((var0 Int) (var1 Int) (var2 Int) (var3 Int) (var4 Int) (var5 Int) (var6 Int) (var7 Int)) (or (not (and (inv_main27 var7 var6 var2) (and (and (and (and (and (<= 0 (+ (+ var7 (* (- 1) (+ var2 1))) (- 1))) (= (+ var6 (- 1)) var1)) (= (+ var2 1) var5)) (= var3 4000)) (= var0 2000)) (= var4 10000)))) (inv_main27 var7 var1 var5))))
(assert (forall ((var0 Int) (var1 Int) (var2 Int)) (not (and (inv_main27 var2 var1 var0) (not (<= 0 (+ var1 (- 1))))))))
(check-sat)
